 vasp.5.4.4.18Apr17-6-g9f103f2a35 (build Apr 24 2017 21:55:34) complex

 executed on             LinuxIFC date 2019.06.20  23:24:05

 INCAR:
 POTCAR:    PAW_PBE Al 04Jan2001
 POTCAR:    PAW_PBE Al 04Jan2001
   VRHFIN =Al: s2p1

   TITEL  = PAW_PBE Al 04Jan2001
   POMASS =   26.981; ZVAL   =    3.000    mass and valenz
   ENMAX  =  240.300; ENMIN  =  180.225 eV

  PAW_PBE Al 04Jan2001                  :

 POSCAR: Al_FCC
  positions in direct lattice
  velocities in cartesian coordinates
 exchange correlation table for  LEXCH =       14
   RHO(1)=    0.500       N(1)  =     2000
   RHO(2)=  100.500       N(2)  =     4000

 ion  position               nearest neighbor table
   1  0.000  0.000  0.000-

IMPORTANT INFORMATION: All symmetrisations will be switched off!
NOSYMM: (Re-)initialisation of all symmetry stuff for point group C_1.

 KPOINTS: band_structure
  interpolating k-points between supplied coordinates
  k-points in reciprocal lattice
Space group operators:
 irot       det(A)        alpha          n_x          n_y          n_z        tau_x        tau_y        tau_z
    1     1.000000     0.000001     1.000000     0.000000     0.000000     0.000000     0.000000     0.000000

 SYSTEM =  Al
 POSCAR =  Al_FCC

 Startparameter for this run:
   NWRITE =      2    write-flag & timer
   PREC   = accura    normal or accurate (medium, high low for compatibility)
   ISTART =      1    job   : 0-new  1-cont  2-samecut
   ICHARG =     11    charge: 1-file 2-atom 10-const
   ISPIN  =      1    spin polarized calculation?
   LNONCOLLINEAR =      T non collinear calculations
   LSORBIT =      T    spin-orbit coupling
   INIWAV =      1    electr: 0-lowe 1-rand  2-diag
   LASPH  =      F    aspherical Exc in radial PAW
   METAGGA=      F    non-selfconsistent MetaGGA calc.

 Electronic Relaxation 1
   ENCUT  =  600.0 eV  44.10 Ry    6.64 a.u.   5.66  5.66  5.66*2*pi/ulx,y,z
   ENINI  =  600.0     initial cutoff
   ENAUG  =  291.1 eV  augmentation charge cutoff
   NELM   =     60;   NELMIN=  6; NELMDL=  0     # of ELM steps
   EDIFF  = 0.1E-06   stopping-criterion for ELM
   LREAL  =      F    real-space projection
   NLSPLINE    = F    spline interpolate recip. space projectors
   LCOMPAT=      F    compatible to vasp.4.4
   GGA_COMPAT  = T    GGA compatible to vasp.4.4-vasp.4.6
   LMAXPAW     = -100 max onsite density
   LMAXMIX     =    2 max onsite mixed and CHGCAR
   VOSKOWN=      0    Vosko Wilk Nusair interpolation
   ROPT   =    0.00000
 Ionic relaxation
   EDIFFG = 0.1E-05   stopping-criterion for IOM
   NSW    =     -1    number of steps for IOM
   NBLOCK =      1;   KBLOCK =      1    inner block; outer block
   IBRION =     -1    ionic relax: 0-MD 1-quasi-New 2-CG
   NFREE  =      0    steps in history (QN), initial steepest desc. (CG)
   ISIF   =      0    stress and relaxation
   IWAVPR =     10    prediction:  0-non 1-charg 2-wave 3-comb
   ISYM   =     -1    0-nonsym 1-usesym 2-fastsym
   LCORR  =      T    Harris-Foulkes like correction to forces

   POTIM  = 0.5000    time-step for ionic-motion
   TEIN   =    0.0    initial temperature
   TEBEG  =    0.0;   TEEND  =   0.0 temperature during run
   SMASS  =  -3.00    Nose mass-parameter (am)
   estimated Nose-frequenzy (Omega)   =  0.10E-29 period in steps =****** mass=  -0.184E-27a.u.
   SCALEE = 1.0000    scale energy and forces
   NPACO  =    256;   APACO  = 16.0  distance and # of slots for P.C.
   PSTRESS=    0.0 pullay stress

  Mass of Ions in am
   POMASS =  26.98
  Ionic Valenz
   ZVAL   =   3.00
  Atomic Wigner-Seitz radii
  virtual crystal weights
   VCA    =   1.00
   NELECT =       3.0000    total number of electrons
   NUPDOWN=      -1.0000    fix difference up-down

 DOS related values:
   EMIN   =  10.00;   EMAX   =-10.00  energy-range for DOS
   EFERMI =   0.00
   ISMEAR =     0;   SIGMA  =   0.20  broadening in eV -4-tet -1-fermi 0-gaus

 Electronic relaxation 2 (details)
   IALGO  =     38    algorithm
   LDIAG  =      T    sub-space diagonalisation (order eigenvalues)
   LSUBROT=      F    optimize rotation matrix (better conditioning)
   TURBO    =      0    0=normal 1=particle mesh
   IRESTART =      0    0=no restart 2=restart with 2 vectors
   NREBOOT  =      0    no. of reboots
   NMIN     =      0    reboot dimension
   EREF     =   0.00    reference energy to select bands
   IMIX   =      4    mixing-type and parameters
     AMIX     =   0.40;   BMIX     =  1.00
     AMIX_MAG =   1.60;   BMIX_MAG =  1.00
     AMIN     =   0.10
     WC   =   100.;   INIMIX=   1;  MIXPRE=   1;  MAXMIX= -45

 Intra band minimization:
   WEIMIN = 0.0000     energy-eigenvalue tresh-hold
   EBREAK =  0.21E-08  absolut break condition
   DEPER  =   0.30     relativ break condition

   TIME   =   0.40     timestep for ELM

  volume/ion in A,a.u.               =      16.13       108.88
  Fermi-wavevector in a.u.,A,eV,Ry     =   0.934403  1.765765 11.879361  0.873108
  Thomas-Fermi vector in A             =   2.061204

 Write flags
   LWAVE        =      T    write WAVECAR
   LDOWNSAMPLE  =      F    k-point downsampling of WAVECAR
   LCHARG       =      F    write CHGCAR
   LVTOT        =      F    write LOCPOT, total local potential
   LVHAR        =      F    write LOCPOT, Hartree potential only
   LELF         =      F    write electronic localiz. function (ELF)
   LORBIT       =     11    0 simple, 1 ext, 2 COOP (PROOUT), +10 PAW based schemes

 Dipole corrections
   LMONO  =      F    monopole corrections only (constant potential shift)
   LDIPOL =      F    correct potential (dipole corrections)
   IDIPOL =      0    1-x, 2-y, 3-z, 4-all directions
   EPSILON=  1.0000000 bulk dielectric constant

 Exchange correlation treatment:
   GGA     =    PS    GGA type
   VOSKOWN=      0    Vosko Wilk Nusair interpolation
   LHFCALC =     F    Hartree Fock is set to
   LHFONE  =     F    Hartree Fock one center treatment
   AEXX    =    0.0000 exact exchange contribution

 Linear response parameters
   LEPSILON=     F    determine dielectric tensor
   LRPA    =     F    only Hartree local field effects (RPA)
   LNABLA  =     F    use nabla operator in PAW spheres
   LVEL    =     F    velocity operator in full k-point grid
   LINTERFAST=   F  fast interpolation
   KINTER  =     0    interpolate to denser k-point grid
   CSHIFT  =0.1000    complex shift for real part using Kramers Kronig
   OMEGAMAX=  -1.0    maximum frequency
   DEG_THRESHOLD= 0.2000000E-02 threshold for treating states as degnerate
   RTIME   =   -0.100 relaxation time in fs
  (WPLASMAI=    0.000 imaginary part of plasma frequency in eV, 0.658/RTIME)
   DFIELD  = 0.0000000 0.0000000 0.0000000 field for delta impulse in time

 Orbital magnetization related:
   ORBITALMAG=     F  switch on orbital magnetization
   LCHIMAG   =     F  perturbation theory with respect to B field
   DQ        =  0.001000  dq finite difference perturbation B field
   LLRAUG    =     F  two centre corrections for induced B field

 Static calculation
 charge density and potential remain constant during run
 non collinear spin polarized calculation
 Variant of blocked Davidson
 Davidson routine will perform the subspace rotation
 perform sub-space diagonalisation
    after iterative eigenvector-optimisation
 no mixing
 using additional bands           10
 reciprocal scheme for non local part
 use partial core corrections
 calculate Harris-corrections to forces
   (improved forces if not selfconsistent)
 use gradient corrections
 WARNING: stress and forces are not correct
  (second derivative of E(xc) not defined)
 use of overlap-Matrix (Vanderbilt PP)
 Gauss-broadening in eV      SIGMA  =   0.20

  energy-cutoff  :      600.00
  volume of cell :       16.13
      direct lattice vectors                 reciprocal lattice vectors
     2.005570022  2.005570022 -0.000000000     0.249305681  0.249305681 -0.249305681
     0.000000000  2.005570022  2.005570022    -0.249305681  0.249305681  0.249305681
     2.005570022 -0.000000000  2.005570022     0.249305681 -0.249305681  0.249305681

  length of vectors
     2.836304325  2.836304325  2.836304325     0.431810106  0.431810106  0.431810106

 old parameters found on file WAVECAR:
  energy-cutoff  :      600.00
  volume of cell :       16.13
      direct lattice vectors                 reciprocal lattice vectors
     2.005570022  2.005570022 -0.000000000     0.249305681  0.249305681 -0.249305681
     0.000000000  2.005570022  2.005570022    -0.249305681  0.249305681  0.249305681
     2.005570022 -0.000000000  2.005570022     0.249305681 -0.249305681  0.249305681

  length of vectors

 k-points in units of 2pi/SCALE and weight: band_structure
   0.00000000  0.00000000  0.00000000       0.003
   0.00209501 -0.00000000  0.00000000       0.003
   0.00419001 -0.00000000  0.00000000       0.003
   0.00628502 -0.00000000  0.00000000       0.003
   0.00838002 -0.00000000  0.00000000       0.003
   0.01047503 -0.00000000  0.00000000       0.003
   0.01257003 -0.00000000  0.00000000       0.003
   0.01466504 -0.00000000  0.00000000       0.003
   0.01676005 -0.00000000  0.00000000       0.003
   0.01885505 -0.00000000  0.00000000       0.003
   0.02095006 -0.00000000  0.00000000       0.003
   0.02304506 -0.00000000  0.00000000       0.003
   0.02514007 -0.00000000  0.00000000       0.003
   0.02723507 -0.00000000  0.00000000       0.003
   0.02933008 -0.00000000  0.00000000       0.003
   0.03142509 -0.00000000  0.00000000       0.003
   0.03352009 -0.00000000  0.00000000       0.003
   0.03561510 -0.00000000  0.00000000       0.003
   0.03771010 -0.00000000  0.00000000       0.003
   0.03980511 -0.00000000  0.00000000       0.003
   0.04190011 -0.00000000  0.00000000       0.003
   0.04399512 -0.00000000  0.00000000       0.003
   0.04609013 -0.00000000  0.00000000       0.003
   0.04818513 -0.00000000  0.00000000       0.003
   0.05028014 -0.00000000  0.00000000       0.003
   0.05237514 -0.00000000  0.00000000       0.003
   0.05447015 -0.00000000  0.00000000       0.003
   0.05656515 -0.00000000  0.00000000       0.003
   0.05866016 -0.00000000  0.00000000       0.003
   0.06075517 -0.00000000  0.00000000       0.003
   0.06285017 -0.00000000  0.00000000       0.003
   0.06494518 -0.00000000  0.00000000       0.003
   0.06704018 -0.00000000  0.00000000       0.003
   0.06913519 -0.00000000  0.00000000       0.003
   0.07123019 -0.00000000  0.00000000       0.003
   0.07332520 -0.00000000  0.00000000       0.003
   0.07542021 -0.00000000  0.00000000       0.003
   0.07751521 -0.00000000  0.00000000       0.003
   0.07961022 -0.00000000  0.00000000       0.003
   0.08170522 -0.00000000  0.00000000       0.003
   0.08380023 -0.00000000  0.00000000       0.003
   0.08589523 -0.00000000  0.00000000       0.003
   0.08799024 -0.00000000  0.00000000       0.003
   0.09008525 -0.00000000  0.00000000       0.003
   0.09218025 -0.00000000  0.00000000       0.003
   0.09427526 -0.00000000  0.00000000       0.003
   0.09637026 -0.00000000  0.00000000       0.003
   0.09846527 -0.00000000  0.00000000       0.003
   0.10056027 -0.00000000  0.00000000       0.003
   0.10265528 -0.00000000  0.00000000       0.003
   0.10475029 -0.00000000  0.00000000       0.003
[...]
 k-point  7 :   0.0252 0.0000 0.0252  plane waves:    1072
 k-point  8 :   0.0294 0.0000 0.0294  plane waves:    1072
 k-point  9 :   0.0336 0.0000 0.0336  plane waves:    1072
 k-point 10 :   0.0378 0.0000 0.0378  plane waves:    1072
 k-point 11 :   0.0420 0.0000 0.0420  plane waves:    1072
 k-point 12 :   0.0462 0.0000 0.0462  plane waves:    1072
 k-point 13 :   0.0504 0.0000 0.0504  plane waves:    1072
 k-point 14 :   0.0546 0.0000 0.0546  plane waves:    1072
 k-point 15 :   0.0588 0.0000 0.0588  plane waves:    1072
 k-point 16 :   0.0630 0.0000 0.0630  plane waves:    1072
 k-point 17 :   0.0672 0.0000 0.0672  plane waves:    1072
 k-point 18 :   0.0714 0.0000 0.0714  plane waves:    1072
 k-point 19 :   0.0756 0.0000 0.0756  plane waves:    1072
 k-point 20 :   0.0798 0.0000 0.0798  plane waves:    1072
 k-point 21 :   0.0840 0.0000 0.0840  plane waves:    1072
 k-point 22 :   0.0882 0.0000 0.0882  plane waves:    1072
 k-point 23 :   0.0924 0.0000 0.0924  plane waves:    1072
 k-point 24 :   0.0966 0.0000 0.0966  plane waves:    1072
 k-point 25 :   0.1008 0.0000 0.1008  plane waves:    1072
 k-point 26 :   0.1050 0.0000 0.1050  plane waves:    1080
 k-point 27 :   0.1092 0.0000 0.1092  plane waves:    1080
 k-point 28 :   0.1134 0.0000 0.1134  plane waves:    1080
 k-point 29 :   0.1176 0.0000 0.1176  plane waves:    1080
 k-point 30 :   0.1218 0.0000 0.1218  plane waves:    1088
 k-point 31 :   0.1261 0.0000 0.1261  plane waves:    1088
 k-point 32 :   0.1303 0.0000 0.1303  plane waves:    1088
 k-point 33 :   0.1345 0.0000 0.1345  plane waves:    1088
 k-point 34 :   0.1387 0.0000 0.1387  plane waves:    1088
 k-point 35 :   0.1429 0.0000 0.1429  plane waves:    1088
 k-point 36 :   0.1471 0.0000 0.1471  plane waves:    1088
 k-point 37 :   0.1513 0.0000 0.1513  plane waves:    1088
 k-point 38 :   0.1555 0.0000 0.1555  plane waves:    1088
 k-point 39 :   0.1597 0.0000 0.1597  plane waves:    1088
 k-point 40 :   0.1639 0.0000 0.1639  plane waves:    1096
 k-point 41 :   0.1681 0.0000 0.1681  plane waves:    1096
 k-point 42 :   0.1723 0.0000 0.1723  plane waves:    1096
 k-point 43 :   0.1765 0.0000 0.1765  plane waves:    1096
 k-point 44 :   0.1807 0.0000 0.1807  plane waves:    1080
 k-point 45 :   0.1849 0.0000 0.1849  plane waves:    1080
 k-point 46 :   0.1891 0.0000 0.1891  plane waves:    1080
 k-point 47 :   0.1933 0.0000 0.1933  plane waves:    1080
 k-point 48 :   0.1975 0.0000 0.1975  plane waves:    1080
 k-point 49 :   0.2017 0.0000 0.2017  plane waves:    1080
 k-point 50 :   0.2059 0.0000 0.2059  plane waves:    1080
 k-point 51 :   0.2101 0.0000 0.2101  plane waves:    1080
 k-point 52 :   0.2143 0.0000 0.2143  plane waves:    1072
 k-point 53 :   0.2185 0.0000 0.2185  plane waves:    1072
 k-point 54 :   0.2227 0.0000 0.2227  plane waves:    1072
 k-point 55 :   0.2269 0.0000 0.2269  plane waves:    1072
 k-point 56 :   0.2311 0.0000 0.2311  plane waves:    1072
 k-point 57 :   0.2353 0.0000 0.2353  plane waves:    1072
 k-point 58 :   0.2395 0.0000 0.2395  plane waves:    1072
 k-point 59 :   0.2437 0.0000 0.2437  plane waves:    1072
 k-point 60 :   0.2479 0.0000 0.2479  plane waves:    1056
[...]
 k-point 85 :   0.3529 0.0000 0.3529  plane waves:    1088
 k-point 86 :   0.3571 0.0000 0.3571  plane waves:    1088
 k-point 87 :   0.3613 0.0000 0.3613  plane waves:    1088
 k-point 88 :   0.3655 0.0000 0.3655  plane waves:    1088
 k-point 89 :   0.3697 0.0000 0.3697  plane waves:    1088
 k-point 90 :   0.3739 0.0000 0.3739  plane waves:    1088
 k-point 91 :   0.3782 0.0000 0.3782  plane waves:    1088
 k-point 92 :   0.3824 0.0000 0.3824  plane waves:    1088
 k-point 93 :   0.3866 0.0000 0.3866  plane waves:    1064
 k-point 94 :   0.3908 0.0000 0.3908  plane waves:    1064
 k-point 95 :   0.3950 0.0000 0.3950  plane waves:    1064
 k-point 96 :   0.3992 0.0000 0.3992  plane waves:    1064
 k-point 97 :   0.4034 0.0000 0.4034  plane waves:    1064
 k-point 98 :   0.4076 0.0000 0.4076  plane waves:    1064
 k-point 99 :   0.4118 0.0000 0.4118  plane waves:    1080
 k-point ** :   0.4160 0.0000 0.4160  plane waves:    1080
 k-point ** :   0.4202 0.0000 0.4202  plane waves:    1080
 k-point ** :   0.4244 0.0000 0.4244  plane waves:    1080
 k-point ** :   0.4286 0.0000 0.4286  plane waves:    1080
 k-point ** :   0.4328 0.0000 0.4328  plane waves:    1080
 k-point ** :   0.4370 0.0000 0.4370  plane waves:    1080
 k-point ** :   0.4412 0.0000 0.4412  plane waves:    1080
 k-point ** :   0.4454 0.0000 0.4454  plane waves:    1072
 k-point ** :   0.4496 0.0000 0.4496  plane waves:    1072
 k-point ** :   0.4538 0.0000 0.4538  plane waves:    1072
 k-point ** :   0.4580 0.0000 0.4580  plane waves:    1072
 k-point ** :   0.4622 0.0000 0.4622  plane waves:    1056
 k-point ** :   0.4664 0.0000 0.4664  plane waves:    1056
 k-point ** :   0.4706 0.0000 0.4706  plane waves:    1056
 k-point ** :   0.4748 0.0000 0.4748  plane waves:    1048
 k-point ** :   0.4790 0.0000 0.4790  plane waves:    1048
 k-point ** :   0.4832 0.0000 0.4832  plane waves:    1048
 k-point ** :   0.4874 0.0000 0.4874  plane waves:    1048
 k-point ** :   0.4916 0.0000 0.4916  plane waves:    1048
 k-point ** :   0.4958 0.0000 0.4958  plane waves:    1048
 k-point ** :   0.5000 0.0000 0.5000  plane waves:    1048
 k-point ** :   0.5000 0.0000 0.5000  plane waves:    1048
 k-point ** :   0.5000 0.0021 0.5021  plane waves:    1048
 k-point ** :   0.5000 0.0042 0.5042  plane waves:    1048
 k-point ** :   0.5000 0.0063 0.5063  plane waves:    1048
 k-point ** :   0.5000 0.0084 0.5084  plane waves:    1048
 k-point ** :   0.5000 0.0105 0.5105  plane waves:    1048
 k-point ** :   0.5000 0.0126 0.5126  plane waves:    1048
 k-point ** :   0.5000 0.0147 0.5147  plane waves:    1048
 k-point ** :   0.5000 0.0168 0.5168  plane waves:    1048
 k-point ** :   0.5000 0.0189 0.5189  plane waves:    1048
 k-point ** :   0.5000 0.0210 0.5210  plane waves:    1048
 k-point ** :   0.5000 0.0231 0.5231  plane waves:    1048
 k-point ** :   0.5000 0.0252 0.5252  plane waves:    1048
 k-point ** :   0.5000 0.0273 0.5273  plane waves:    1052
 k-point ** :   0.5000 0.0294 0.5294  plane waves:    1052
 k-point ** :   0.5000 0.0315 0.5315  plane waves:    1052
 k-point ** :   0.5000 0.0336 0.5336  plane waves:    1052
 k-point ** :   0.5000 0.0357 0.5357  plane waves:    1060
 k-point ** :   0.5000 0.0378 0.5378  plane waves:    1060
 k-point ** :   0.5000 0.0399 0.5399  plane waves:    1060
 k-point ** :   0.5000 0.0420 0.5420  plane waves:    1060
 k-point ** :   0.5000 0.0441 0.5441  plane waves:    1060
 k-point ** :   0.5000 0.0462 0.5462  plane waves:    1060
 k-point ** :   0.5000 0.0483 0.5483  plane waves:    1060
 k-point ** :   0.5000 0.0504 0.5504  plane waves:    1060
 k-point ** :   0.5000 0.0525 0.5525  plane waves:    1064
 k-point ** :   0.5000 0.0546 0.5546  plane waves:    1064
 k-point ** :   0.5000 0.0567 0.5567  plane waves:    1064
 k-point ** :   0.5000 0.0588 0.5588  plane waves:    1064
 k-point ** :   0.5000 0.0609 0.5609  plane waves:    1064
 k-point ** :   0.5000 0.0630 0.5630  plane waves:    1064
 k-point ** :   0.5000 0.0651 0.5651  plane waves:    1064
 k-point ** :   0.5000 0.0672 0.5672  plane waves:    1072
 k-point ** :   0.5000 0.0693 0.5693  plane waves:    1072
 k-point ** :   0.5000 0.0714 0.5714  plane waves:    1072
 k-point ** :   0.5000 0.0735 0.5735  plane waves:    1072
 k-point ** :   0.5000 0.0756 0.5756  plane waves:    1072
 k-point ** :   0.5000 0.0777 0.5777  plane waves:    1064
 k-point ** :   0.5000 0.0798 0.5798  plane waves:    1064
[...]
 k-point ** :   0.3897 0.3603 0.7500  plane waves:    1068
 k-point ** :   0.3887 0.3613 0.7500  plane waves:    1068
 k-point ** :   0.3876 0.3624 0.7500  plane waves:    1068
 k-point ** :   0.3866 0.3634 0.7500  plane waves:    1068
 k-point ** :   0.3855 0.3645 0.7500  plane waves:    1068
 k-point ** :   0.3845 0.3655 0.7500  plane waves:    1068
 k-point ** :   0.3834 0.3666 0.7500  plane waves:    1068
 k-point ** :   0.3824 0.3676 0.7500  plane waves:    1068
 k-point ** :   0.3813 0.3687 0.7500  plane waves:    1068
 k-point ** :   0.3803 0.3697 0.7500  plane waves:    1068
 k-point ** :   0.3792 0.3708 0.7500  plane waves:    1068
 k-point ** :   0.3782 0.3718 0.7500  plane waves:    1068
 k-point ** :   0.3771 0.3729 0.7500  plane waves:    1080
 k-point ** :   0.3761 0.3739 0.7500  plane waves:    1084
 k-point ** :   0.3750 0.3750 0.7500  plane waves:    1084

 maximum and minimum number of plane-waves per node :       288      240

 maximum number of plane-waves:      1096
 maximum index in each direction:
   IXMAX=    5   IYMAX=    5   IZMAX=    5
   IXMIN=   -6   IYMIN=   -6   IZMIN=   -6

 parallel 3D FFT for wavefunctions:
    minimum data exchange during FFTs selected (reduces bandwidth)
 parallel 3D FFT for charge:
    minimum data exchange during FFTs selected (reduces bandwidth)

 initial charge density was supplied:
 number of electron       3.0000000 magnetization      -0.0000000      0.0000000      0.0000035
 keeping initial charge density in first step

 Maximum index for augmentation-charges         1135 (set IRDMAX)

 First call to EWALD:  gamma=   0.701
 Maximum number of real-space cells 3x 3x 3
 Maximum number of reciprocal cells 3x 3x 3

--------------------------------------- Iteration      1(   1)  ---------------------------------------

 eigenvalue-minimisations  : 13320
 total energy-change (2. order) : 0.9987899E-04  (-0.5450782E+01)
 number of electron       3.0000000 magnetization      -0.0000000      0.0000000      0.0000035
 augmentation part        3.0000000 magnetization      -0.0000000      0.0000000      0.0000035

 Free energy of the ion-electron system (eV)
  alpha Z        PSCENC =        -0.20818141
  Ewald energy   TEWEN  =       -74.06738932
  -Hartree energ DENC   =        -0.10560713
  -exchange      EXHF   =         0.00000000
  -V(xc)+E(xc)   XCENC  =       -25.18378027
  PAW double counting   =       150.96371336     -119.75497379
  entropy T*S    EENTRO =        -0.02550591
  eigenvalues    EBANDS =        15.21460622
  atomic energy  EATOM  =        53.16721811
  Solvation  Ediel_sol  =         0.00000000
  free energy    TOTEN  =         0.00009988 eV

  energy without entropy =        0.02560579  energy(sigma->0) =        0.01285283

[...]

 eigenvalue-minimisations  :  8796
 total energy-change (2. order) :-0.5308208E-02  (-0.5307093E-02)
 number of electron       3.0000000 magnetization      -0.0000000      0.0000000      0.0000035
 augmentation part        3.0000000 magnetization      -0.0000000      0.0000000      0.0000035

[...]

 total charge

# of ion       s       p       d       tot
    1        0.256   0.470   0.000   0.726

 magnetization (x)

[...]

 magnetization (y)

[...]

 magnetization (z)

[...]

 eigenvalue-minimisations  : 10308
 total energy-change (2. order) :-0.2027576E-08  (-0.1399951E-08)
 number of electron       3.0000000 magnetization      -0.0000000      0.0000000      0.0000035
 augmentation part        3.0000000 magnetization      -0.0000000      0.0000000      0.0000035

[...]

--------------------------------------- Iteration      1(   6)  ---------------------------------------

 eigenvalue-minimisations  :  6612
 total energy-change (2. order) : 0.9713119E-10  (-0.1665735E-10)
 number of electron       3.0000000 magnetization      -0.0000000      0.0000000      0.0000035
 augmentation part        3.0000000 magnetization      -0.0000000      0.0000000      0.0000035

 Free energy of the ion-electron system (eV)
  alpha Z        PSCENC =        -0.20818141
  Ewald energy   TEWEN  =       -74.06738932
  -Hartree energ DENC   =        -0.10560713
  -exchange      EXHF   =         0.00000000
  -V(xc)+E(xc)   XCENC  =       -25.18378027
  PAW double counting   =       150.96371336     -119.75497379
  entropy T*S    EENTRO =        -0.02552713
  eigenvalues    EBANDS =        15.20930196
  atomic energy  EATOM  =        53.16721811
  Solvation  Ediel_sol  =         0.00000000
  free energy    TOTEN  =        -0.00522561 eV

  energy without entropy =        0.02030152  energy(sigma->0) =        0.00753796

 average (electrostatic) potential at core
  the test charge radii are     1.0406
  (the norm of the test charge is              1.0000)
       1 -72.0530

 E-fermi :   7.3524     XC(G=0): -10.3391     alpha+bet :-15.2138

 k-point     1 :       0.0000    0.0000    0.0000
  band No.  band energies     occupation
      1      -3.1008      1.00000
      2      -3.1008      1.00000
      3      20.9037      0.00000
      4      20.9037      0.00000
      5      20.9037      0.00000
      6      20.9037      0.00000
      7      20.9037      0.00000
      8      20.9037      0.00000
      9      22.5228      0.00000
     10      22.5228      0.00000
     11      22.5885      0.00000
     12      22.5885      0.00000

[...]

 k-point   360 :       0.3750    0.3750    0.7500
  band No.  band energies     occupation
      1       6.2601      1.00000
      2       6.2601      1.00000
      3       6.7794      0.99997
      4       6.7794      0.99997
      5       7.8245      0.00042
      6       7.8245      0.00042
      7      14.8553      0.00000
      8      14.8553      0.00000
      9      16.5019      0.00000
     10      16.5019      0.00000
     11      24.0957      0.00000
     12      24.0957      0.00000

 soft charge-density along one line, spin component           1
         0         1         2         3         4         5         6         7         8         9
 total charge-density along one line

[...]

 soft charge-density along one line, spin component           4
         0         1         2         3         4         5         6         7         8         9
 total charge-density along one line

------------------------ aborting loop because EDIFF is reached ----------------------------------------

[...]

 VOLUME and BASIS-vectors are now :
  energy-cutoff  :      600.00
  volume of cell :       16.13
      direct lattice vectors                 reciprocal lattice vectors
     2.005570022  2.005570022 -0.000000000     0.249305681  0.249305681 -0.249305681
     0.000000000  2.005570022  2.005570022    -0.249305681  0.249305681  0.249305681
     2.005570022 -0.000000000  2.005570022     0.249305681 -0.249305681  0.249305681

  length of vectors
     2.836304325  2.836304325  2.836304325     0.431810106  0.431810106  0.431810106

 FORCES acting on ions
    electron-ion (+dipol)            ewald-force                    non-local-force                 convergence-correction
   0.274E-07 -.725E-07 0.976E-07   0.128E-15 0.219E-15 -.131E-15   -.347E-07 0.787E-07 -.105E-06   0.491E-10 0.203E-08 0.521E-10
   0.274E-07 -.725E-07 0.976E-07   0.128E-15 0.219E-15 -.131E-15   -.347E-07 0.787E-07 -.105E-06   0.491E-10 0.203E-08 0.521E-10

 POSITION                                       TOTAL-FORCE (eV/Angst)
      0.00000      0.00000      0.00000        -0.000000      0.000000     -0.000000
    total drift:                               -0.000000      0.000000     -0.000000

  FREE ENERGIE OF THE ION-ELECTRON SYSTEM (eV)
  free  energy   TOTEN  =        -0.00522561 eV

  energy  without entropy=        0.02030152  energy(sigma->0) =        0.00753796

 writing wavefunctions

 Spin-Orbit-Coupling matrix elements

 Ion:    1  E_soc:     -0.0002564
 l=   1
     0.0000000    -0.0000219    -0.0000687
    -0.0000219     0.0000000    -0.0000376
    -0.0000687    -0.0000376     0.0000000
 l=   2
     0.0000000     0.0000000     0.0000000     0.0000000     0.0000000
     0.0000000     0.0000000     0.0000000     0.0000000     0.0000000
     0.0000000     0.0000000     0.0000000     0.0000000     0.0000000
     0.0000000     0.0000000     0.0000000     0.0000000     0.0000000
     0.0000000     0.0000000     0.0000000     0.0000000     0.0000000
 l=   3
     0.0000000     0.0000000     0.0000000     0.0000000     0.0000000     0.0000000     0.0000000
     0.0000000     0.0000000     0.0000000     0.0000000     0.0000000     0.0000000     0.0000000
     0.0000000     0.0000000     0.0000000     0.0000000     0.0000000     0.0000000     0.0000000
     0.0000000     0.0000000     0.0000000     0.0000000     0.0000000     0.0000000     0.0000000
     0.0000000     0.0000000     0.0000000     0.0000000     0.0000000     0.0000000     0.0000000
     0.0000000     0.0000000     0.0000000     0.0000000     0.0000000     0.0000000     0.0000000
     0.0000000     0.0000000     0.0000000     0.0000000     0.0000000     0.0000000     0.0000000

 total charge

[...]

 magnetization (x)

[...]

 magnetization (y)

[...]

 magnetization (z)

# of ion       s       p       d       tot
    1       -0.000   0.000   0.000   0.000