 vasp.5.4.4.18Apr17-6-g9f103f2a35 (build Apr 24 2017 21:27:10) complex

 executed on             LinuxIFC date 2019.06.17  15:23:17

 INCAR:
 POTCAR:    PAW_PBE Al 04Jan2001
 POTCAR:    PAW_PBE Al 04Jan2001
   VRHFIN =Al: s2p1

   TITEL  = PAW_PBE Al 04Jan2001
   POMASS =   26.981; ZVAL   =    3.000    mass and valenz
   ENMAX  =  240.300; ENMIN  =  180.225 eV

  PAW_PBE Al 04Jan2001                  :

 POSCAR: Al_FCC
  positions in direct lattice
  velocities in cartesian coordinates
 exchange correlation table for  LEXCH =       14
   RHO(1)=    0.500       N(1)  =     2000
   RHO(2)=  100.500       N(2)  =     4000

 ion  position               nearest neighbor table
   1  0.000  0.000  0.000-

IMPORTANT INFORMATION: All symmetrisations will be switched off!
NOSYMM: (Re-)initialisation of all symmetry stuff for point group C_1.

 KPOINTS: band_structure
  interpolating k-points between supplied coordinates
  k-points in reciprocal lattice
Space group operators:
 irot       det(A)        alpha          n_x          n_y          n_z        tau_x        tau_y        tau_z
    1     1.000000     0.000001     1.000000     0.000000     0.000000     0.000000     0.000000     0.000000

 SYSTEM =  Al
 POSCAR =  Al_FCC

 Startparameter for this run:
   NWRITE =      2    write-flag & timer
   PREC   = accura    normal or accurate (medium, high low for compatibility)
   ISTART =      0    job   : 0-new  1-cont  2-samecut
   ICHARG =     11    charge: 1-file 2-atom 10-const
   ISPIN  =      1    spin polarized calculation?
   LNONCOLLINEAR =      F non collinear calculations
   LSORBIT =      F    spin-orbit coupling
   INIWAV =      1    electr: 0-lowe 1-rand  2-diag
   LASPH  =      F    aspherical Exc in radial PAW
   METAGGA=      F    non-selfconsistent MetaGGA calc.

 Electronic Relaxation 1
   ENCUT  =  600.0 eV  44.10 Ry    6.64 a.u.   5.66  5.66  5.66*2*pi/ulx,y,z
   ENINI  =  600.0     initial cutoff
   ENAUG  =  291.1 eV  augmentation charge cutoff
   NELM   =     60;   NELMIN=  6; NELMDL=  0     # of ELM steps
   EDIFF  = 0.1E-06   stopping-criterion for ELM
   LREAL  =      F    real-space projection
   NLSPLINE    = F    spline interpolate recip. space projectors
   LCOMPAT=      F    compatible to vasp.4.4
   GGA_COMPAT  = T    GGA compatible to vasp.4.4-vasp.4.6
   LMAXPAW     = -100 max onsite density
   LMAXMIX     =    2 max onsite mixed and CHGCAR
   VOSKOWN=      0    Vosko Wilk Nusair interpolation
   ROPT   =    0.00000
 Ionic relaxation
   EDIFFG = 0.1E-05   stopping-criterion for IOM
   NSW    =      0    number of steps for IOM
   NBLOCK =      1;   KBLOCK =      1    inner block; outer block
   IBRION =     -1    ionic relax: 0-MD 1-quasi-New 2-CG
   NFREE  =      0    steps in history (QN), initial steepest desc. (CG)
   ISIF   =      0    stress and relaxation
   IWAVPR =     10    prediction:  0-non 1-charg 2-wave 3-comb
   ISYM   =     -1    0-nonsym 1-usesym 2-fastsym
   LCORR  =      T    Harris-Foulkes like correction to forces

   POTIM  = 0.5000    time-step for ionic-motion
   TEIN   =    0.0    initial temperature
   TEBEG  =    0.0;   TEEND  =   0.0 temperature during run
   SMASS  =  -3.00    Nose mass-parameter (am)
   estimated Nose-frequenzy (Omega)   =  0.10E-29 period in steps =****** mass=  -0.184E-27a.u.
   SCALEE = 1.0000    scale energy and forces
   NPACO  =    256;   APACO  = 16.0  distance and # of slots for P.C.
   PSTRESS=    0.0 pullay stress

  Mass of Ions in am
   POMASS =  26.98
  Ionic Valenz
   ZVAL   =   3.00
  Atomic Wigner-Seitz radii
  virtual crystal weights
   VCA    =   1.00
   NELECT =       3.0000    total number of electrons
   NUPDOWN=      -1.0000    fix difference up-down

 DOS related values:
   EMIN   =  10.00;   EMAX   =-10.00  energy-range for DOS
   EFERMI =   0.00
   ISMEAR =     0;   SIGMA  =   0.02  broadening in eV -4-tet -1-fermi 0-gaus

 Electronic relaxation 2 (details)
   IALGO  =     38    algorithm
   LDIAG  =      T    sub-space diagonalisation (order eigenvalues)
   LSUBROT=      F    optimize rotation matrix (better conditioning)
   TURBO    =      0    0=normal 1=particle mesh
   IRESTART =      0    0=no restart 2=restart with 2 vectors
   NREBOOT  =      0    no. of reboots
   NMIN     =      0    reboot dimension
   EREF     =   0.00    reference energy to select bands
   IMIX   =      4    mixing-type and parameters
     AMIX     =   0.40;   BMIX     =  1.00
     AMIX_MAG =   1.60;   BMIX_MAG =  1.00
     AMIN     =   0.10
     WC   =   100.;   INIMIX=   1;  MIXPRE=   1;  MAXMIX= -45

 Intra band minimization:
   WEIMIN = 0.0000     energy-eigenvalue tresh-hold
   EBREAK =  0.14E-08  absolut break condition
   DEPER  =   0.30     relativ break condition

   TIME   =   0.40     timestep for ELM

  volume/ion in A,a.u.               =      16.13       108.88
  Fermi-wavevector in a.u.,A,eV,Ry     =   0.934403  1.765765 11.879361  0.873108
  Thomas-Fermi vector in A             =   2.061204

 Write flags
   LWAVE        =      T    write WAVECAR
   LDOWNSAMPLE  =      F    k-point downsampling of WAVECAR
   LCHARG       =      F    write CHGCAR
   LVTOT        =      F    write LOCPOT, total local potential
   LVHAR        =      F    write LOCPOT, Hartree potential only
   LELF         =      F    write electronic localiz. function (ELF)
   LORBIT       =     11    0 simple, 1 ext, 2 COOP (PROOUT), +10 PAW based schemes

 Dipole corrections
   LMONO  =      F    monopole corrections only (constant potential shift)
   LDIPOL =      F    correct potential (dipole corrections)
   IDIPOL =      0    1-x, 2-y, 3-z, 4-all directions
   EPSILON=  1.0000000 bulk dielectric constant

 Exchange correlation treatment:
   GGA     =    PS    GGA type
   VOSKOWN=      0    Vosko Wilk Nusair interpolation
   LHFCALC =     F    Hartree Fock is set to
   LHFONE  =     F    Hartree Fock one center treatment
   AEXX    =    0.0000 exact exchange contribution

 Linear response parameters
   LEPSILON=     F    determine dielectric tensor
   LRPA    =     F    only Hartree local field effects (RPA)
   LNABLA  =     F    use nabla operator in PAW spheres
   LVEL    =     F    velocity operator in full k-point grid
   LINTERFAST=   F  fast interpolation
   KINTER  =     0    interpolate to denser k-point grid
   CSHIFT  =0.1000    complex shift for real part using Kramers Kronig
   OMEGAMAX=  -1.0    maximum frequency
   DEG_THRESHOLD= 0.2000000E-02 threshold for treating states as degnerate
   RTIME   =   -0.100 relaxation time in fs
  (WPLASMAI=    0.000 imaginary part of plasma frequency in eV, 0.658/RTIME)
   DFIELD  = 0.0000000 0.0000000 0.0000000 field for delta impulse in time

 Orbital magnetization related:
   ORBITALMAG=     F  switch on orbital magnetization
   LCHIMAG   =     F  perturbation theory with respect to B field
   DQ        =  0.001000  dq finite difference perturbation B field
   LLRAUG    =     F  two centre corrections for induced B field

 Static calculation
 charge density and potential remain constant during run
 non-spin polarized calculation
 Variant of blocked Davidson
 Davidson routine will perform the subspace rotation
 perform sub-space diagonalisation
    after iterative eigenvector-optimisation
 no mixing
 using additional bands           16
 reciprocal scheme for non local part
 use partial core corrections
 calculate Harris-corrections to forces
   (improved forces if not selfconsistent)
 use gradient corrections
 WARNING: stress and forces are not correct
  (second derivative of E(xc) not defined)
 use of overlap-Matrix (Vanderbilt PP)
 Gauss-broadening in eV      SIGMA  =   0.02

  energy-cutoff  :      600.00
  volume of cell :       16.13
      direct lattice vectors                 reciprocal lattice vectors
     2.005570022  2.005570022 -0.000000000     0.249305681  0.249305681 -0.249305681
     0.000000000  2.005570022  2.005570022    -0.249305681  0.249305681  0.249305681
     2.005570022 -0.000000000  2.005570022     0.249305681 -0.249305681  0.249305681

  length of vectors
     2.836304325  2.836304325  2.836304325     0.431810106  0.431810106  0.431810106

 k-points in units of 2pi/SCALE and weight: band_structure
   0.00000000  0.00000000  0.00000000       0.008
   0.00639245 -0.00000000  0.00000000       0.008
   0.01278491 -0.00000000  0.00000000       0.008
   0.01917736 -0.00000000  0.00000000       0.008
   0.02556981 -0.00000000  0.00000000       0.008
   0.03196227 -0.00000000  0.00000000       0.008
   0.03835472 -0.00000000  0.00000000       0.008
   0.04474717 -0.00000000  0.00000000       0.008
   0.05113963 -0.00000000  0.00000000       0.008
   0.05753208 -0.00000000  0.00000000       0.008
   0.06392453 -0.00000000  0.00000000       0.008
   0.07031699 -0.00000000  0.00000000       0.008
   0.07670944 -0.00000000  0.00000000       0.008
   0.08310189 -0.00000000  0.00000000       0.008
   0.08949435 -0.00000000  0.00000000       0.008
   0.09588680 -0.00000000  0.00000000       0.008
   0.10227925 -0.00000000  0.00000000       0.008
   0.10867171 -0.00000000  0.00000000       0.008
   0.11506416 -0.00000000  0.00000000       0.008
   0.12145661 -0.00000000  0.00000000       0.008
   0.12784907 -0.00000000  0.00000000       0.008
   0.13424152 -0.00000000  0.00000000       0.008
   0.14063397 -0.00000000  0.00000000       0.008
   0.14702643 -0.00000000  0.00000000       0.008
   0.15341888 -0.00000000  0.00000000       0.008
   0.15981133 -0.00000000  0.00000000       0.008
   0.16620379 -0.00000000  0.00000000       0.008
   0.17259624 -0.00000000  0.00000000       0.008
   0.17898869 -0.00000000  0.00000000       0.008
   0.18538115 -0.00000000  0.00000000       0.008
   0.19177360 -0.00000000  0.00000000       0.008
   0.19816605 -0.00000000  0.00000000       0.008
   0.20455851 -0.00000000  0.00000000       0.008
   0.21095096 -0.00000000  0.00000000       0.008
   0.21734341 -0.00000000  0.00000000       0.008
   0.22373587 -0.00000000  0.00000000       0.008
   0.23012832 -0.00000000  0.00000000       0.008
   0.23652077 -0.00000000  0.00000000       0.008
   0.24291323 -0.00000000  0.00000000       0.008
   0.24930568 -0.00000000  0.00000000       0.008
   0.24930568 -0.00000000  0.00000000       0.008
   0.24930568 -0.00000000  0.00319623       0.008
   0.24930568  0.00000000  0.00639245       0.008
   0.24930568 -0.00000000  0.00958868       0.008
   0.24930568 -0.00000000  0.01278491       0.008
   0.24930568 -0.00000000  0.01598113       0.008
   0.24930568  0.00000000  0.01917736       0.008
   0.24930568 -0.00000000  0.02237359       0.008
   0.24930568 -0.00000000  0.02556981       0.008
   0.24930568 -0.00000000  0.02876604       0.008
   0.24930568 -0.00000000  0.03196227       0.008
   0.24930568 -0.00000000  0.03515849       0.008
   0.24930568 -0.00000000  0.03835472       0.008
   0.24930568 -0.00000000  0.04155095       0.008
   0.24930568 -0.00000000  0.04474717       0.008
   0.24930568 -0.00000000  0.04794340       0.008
   0.24930568 -0.00000000  0.05113963       0.008
   0.24930568 -0.00000000  0.05433585       0.008
   0.24930568 -0.00000000  0.05753208       0.008
   0.24930568 -0.00000000  0.06072831       0.008
[...]
[...]
   0.20615662  0.00000000  0.16780190       0.008
   0.20455851  0.00000000  0.16940001       0.008
   0.20296039  0.00000000  0.17099813       0.008
   0.20136228  0.00000000  0.17259624       0.008
   0.19976417  0.00000000  0.17419435       0.008
   0.19816605  0.00000000  0.17579247       0.008
   0.19656794  0.00000000  0.17739058       0.008
   0.19496983  0.00000000  0.17898869       0.008
   0.19337171  0.00000000  0.18058681       0.008
   0.19177360  0.00000000  0.18218492       0.008
   0.19017549  0.00000000  0.18378303       0.008
   0.18857737  0.00000000  0.18538115       0.008
   0.18697926  0.00000000  0.18697926       0.008

 k-points in reciprocal lattice and weights: band_structure
   0.00000000  0.00000000  0.00000000       0.008
   0.01282051  0.00000000  0.01282051       0.008
   0.02564103  0.00000000  0.02564103       0.008
   0.03846154  0.00000000  0.03846154       0.008
   0.05128205  0.00000000  0.05128205       0.008
   0.06410256  0.00000000  0.06410256       0.008
   0.07692308  0.00000000  0.07692308       0.008
   0.08974359  0.00000000  0.08974359       0.008
   0.10256410  0.00000000  0.10256410       0.008
   0.11538462  0.00000000  0.11538462       0.008
   0.12820513  0.00000000  0.12820513       0.008
   0.14102564  0.00000000  0.14102564       0.008
   0.15384615  0.00000000  0.15384615       0.008
   0.16666667  0.00000000  0.16666667       0.008
   0.17948718  0.00000000  0.17948718       0.008
   0.19230769  0.00000000  0.19230769       0.008
   0.20512821  0.00000000  0.20512821       0.008
   0.21794872  0.00000000  0.21794872       0.008
   0.23076923  0.00000000  0.23076923       0.008
   0.24358974  0.00000000  0.24358974       0.008
   0.25641026  0.00000000  0.25641026       0.008
   0.26923077  0.00000000  0.26923077       0.008
   0.28205128  0.00000000  0.28205128       0.008
   0.29487179  0.00000000  0.29487179       0.008
   0.30769231  0.00000000  0.30769231       0.008
   0.32051282  0.00000000  0.32051282       0.008
   0.33333333  0.00000000  0.33333333       0.008
   0.34615385  0.00000000  0.34615385       0.008
   0.35897436  0.00000000  0.35897436       0.008
   0.37179487  0.00000000  0.37179487       0.008
   0.38461538  0.00000000  0.38461538       0.008
   0.39743590  0.00000000  0.39743590       0.008
   0.41025641  0.00000000  0.41025641       0.008
   0.42307692  0.00000000  0.42307692       0.008
   0.43589744  0.00000000  0.43589744       0.008
   0.44871795  0.00000000  0.44871795       0.008
   0.46153846  0.00000000  0.46153846       0.008
   0.47435897  0.00000000  0.47435897       0.008
   0.48717949  0.00000000  0.48717949       0.008
   0.50000000  0.00000000  0.50000000       0.008
   0.50000000  0.00000000  0.50000000       0.008
   0.50000000  0.00641026  0.50641026       0.008
   0.50000000  0.01282051  0.51282051       0.008
   0.50000000  0.01923077  0.51923077       0.008
   0.50000000  0.02564103  0.52564103       0.008
   0.50000000  0.03205128  0.53205128       0.008
   0.50000000  0.03846154  0.53846154       0.008
   0.50000000  0.04487179  0.54487179       0.008
   0.50000000  0.05128205  0.55128205       0.008
   0.50000000  0.05769231  0.55769231       0.008
   0.50000000  0.06410256  0.56410256       0.008
   0.50000000  0.07051282  0.57051282       0.008
   0.50000000  0.07692308  0.57692308       0.008
   0.50000000  0.08333333  0.58333333       0.008
   0.50000000  0.08974359  0.58974359       0.008
   0.50000000  0.09615385  0.59615385       0.008
   0.50000000  0.10256410  0.60256410       0.008
   0.50000000  0.10897436  0.60897436       0.008
   0.50000000  0.11538462  0.61538462       0.008
   0.50000000  0.12179487  0.62179487       0.008
[...]
   0.41987179  0.33012821  0.75000000       0.008
   0.41666667  0.33333333  0.75000000       0.008
   0.41346154  0.33653846  0.75000000       0.008
   0.41025641  0.33974359  0.75000000       0.008
   0.40705128  0.34294872  0.75000000       0.008
   0.40384615  0.34615385  0.75000000       0.008
   0.40064103  0.34935897  0.75000000       0.008
   0.39743590  0.35256410  0.75000000       0.008
   0.39423077  0.35576923  0.75000000       0.008
   0.39102564  0.35897436  0.75000000       0.008
   0.38782051  0.36217949  0.75000000       0.008
   0.38461538  0.36538462  0.75000000       0.008
   0.38141026  0.36858974  0.75000000       0.008
   0.37820513  0.37179487  0.75000000       0.008
   0.37500000  0.37500000  0.75000000       0.008

 position of ions in fractional coordinates (direct lattice)
   0.00000000  0.00000000  0.00000000

 position of ions in cartesian coordinates  (Angst):
   0.00000000  0.00000000  0.00000000

 k-point  1 :   0.0000 0.0000 0.0000  plane waves:     537
 k-point  2 :   0.0128 0.0000 0.0128  plane waves:     536
 k-point  3 :   0.0256 0.0000 0.0256  plane waves:     536
 k-point  4 :   0.0385 0.0000 0.0385  plane waves:     536
 k-point  5 :   0.0513 0.0000 0.0513  plane waves:     536
 k-point  6 :   0.0641 0.0000 0.0641  plane waves:     536
 k-point  7 :   0.0769 0.0000 0.0769  plane waves:     536
 k-point  8 :   0.0897 0.0000 0.0897  plane waves:     536
 k-point  9 :   0.1026 0.0000 0.1026  plane waves:     540
 k-point 10 :   0.1154 0.0000 0.1154  plane waves:     540
 k-point 11 :   0.1282 0.0000 0.1282  plane waves:     544
 k-point 12 :   0.1410 0.0000 0.1410  plane waves:     544
 k-point 13 :   0.1538 0.0000 0.1538  plane waves:     544
 k-point 14 :   0.1667 0.0000 0.1667  plane waves:     548
 k-point 15 :   0.1795 0.0000 0.1795  plane waves:     548
 k-point 16 :   0.1923 0.0000 0.1923  plane waves:     540
 k-point 17 :   0.2051 0.0000 0.2051  plane waves:     540
 k-point 18 :   0.2179 0.0000 0.2179  plane waves:     536
 k-point 19 :   0.2308 0.0000 0.2308  plane waves:     536
 k-point 20 :   0.2436 0.0000 0.2436  plane waves:     536
 k-point 21 :   0.2564 0.0000 0.2564  plane waves:     540
 k-point 22 :   0.2692 0.0000 0.2692  plane waves:     548
 k-point 23 :   0.2821 0.0000 0.2821  plane waves:     548
 k-point 24 :   0.2949 0.0000 0.2949  plane waves:     548
 k-point 25 :   0.3077 0.0000 0.3077  plane waves:     548
 k-point 26 :   0.3205 0.0000 0.3205  plane waves:     548
 k-point 27 :   0.3333 0.0000 0.3333  plane waves:     540
 k-point 28 :   0.3462 0.0000 0.3462  plane waves:     544
 k-point 29 :   0.3590 0.0000 0.3590  plane waves:     544
 k-point 30 :   0.3718 0.0000 0.3718  plane waves:     544
 k-point 31 :   0.3846 0.0000 0.3846  plane waves:     532
 k-point 32 :   0.3974 0.0000 0.3974  plane waves:     532
 k-point 33 :   0.4103 0.0000 0.4103  plane waves:     532
 k-point 34 :   0.4231 0.0000 0.4231  plane waves:     540
 k-point 35 :   0.4359 0.0000 0.4359  plane waves:     540
 k-point 36 :   0.4487 0.0000 0.4487  plane waves:     536
 k-point 37 :   0.4615 0.0000 0.4615  plane waves:     528
 k-point 38 :   0.4744 0.0000 0.4744  plane waves:     524
 k-point 39 :   0.4872 0.0000 0.4872  plane waves:     524
 k-point 40 :   0.5000 0.0000 0.5000  plane waves:     524
 k-point 41 :   0.5000 0.0000 0.5000  plane waves:     524
 k-point 42 :   0.5000 0.0064 0.5064  plane waves:     524
 k-point 43 :   0.5000 0.0128 0.5128  plane waves:     524
 k-point 44 :   0.5000 0.0192 0.5192  plane waves:     524
 k-point 45 :   0.5000 0.0256 0.5256  plane waves:     524
 k-point 46 :   0.5000 0.0321 0.5321  plane waves:     526
 k-point 47 :   0.5000 0.0385 0.5385  plane waves:     530
 k-point 48 :   0.5000 0.0449 0.5449  plane waves:     530
 k-point 49 :   0.5000 0.0513 0.5513  plane waves:     530
 k-point 50 :   0.5000 0.0577 0.5577  plane waves:     532
 k-point 51 :   0.5000 0.0641 0.5641  plane waves:     532
 k-point 52 :   0.5000 0.0705 0.5705  plane waves:     536
 k-point 53 :   0.5000 0.0769 0.5769  plane waves:     536
 k-point 54 :   0.5000 0.0833 0.5833  plane waves:     532
 k-point 55 :   0.5000 0.0897 0.5897  plane waves:     532
 k-point 56 :   0.5000 0.0962 0.5962  plane waves:     536
 k-point 57 :   0.5000 0.1026 0.6026  plane waves:     536
 k-point 58 :   0.5000 0.1090 0.6090  plane waves:     536
 k-point 59 :   0.5000 0.1154 0.6154  plane waves:     536
 k-point 60 :   0.5000 0.1218 0.6218  plane waves:     536
[...]
 k-point 85 :   0.4872 0.2628 0.7500  plane waves:     524
 k-point 86 :   0.4840 0.2660 0.7500  plane waves:     524
 k-point 87 :   0.4808 0.2692 0.7500  plane waves:     524
 k-point 88 :   0.4776 0.2724 0.7500  plane waves:     524
 k-point 89 :   0.4744 0.2756 0.7500  plane waves:     529
 k-point 90 :   0.4712 0.2788 0.7500  plane waves:     529
 k-point 91 :   0.4679 0.2821 0.7500  plane waves:     529
 k-point 92 :   0.4647 0.2853 0.7500  plane waves:     529
 k-point 93 :   0.4615 0.2885 0.7500  plane waves:     529
 k-point 94 :   0.4583 0.2917 0.7500  plane waves:     529
 k-point 95 :   0.4551 0.2949 0.7500  plane waves:     531
 k-point 96 :   0.4519 0.2981 0.7500  plane waves:     531
 k-point 97 :   0.4487 0.3013 0.7500  plane waves:     531
 k-point 98 :   0.4455 0.3045 0.7500  plane waves:     531
 k-point 99 :   0.4423 0.3077 0.7500  plane waves:     531
 k-point ** :   0.4391 0.3109 0.7500  plane waves:     531
 k-point ** :   0.4359 0.3141 0.7500  plane waves:     532
 k-point ** :   0.4327 0.3173 0.7500  plane waves:     532
 k-point ** :   0.4295 0.3205 0.7500  plane waves:     532
 k-point ** :   0.4263 0.3237 0.7500  plane waves:     532
 k-point ** :   0.4231 0.3269 0.7500  plane waves:     530
 k-point ** :   0.4199 0.3301 0.7500  plane waves:     530
 k-point ** :   0.4167 0.3333 0.7500  plane waves:     530
 k-point ** :   0.4135 0.3365 0.7500  plane waves:     530
 k-point ** :   0.4103 0.3397 0.7500  plane waves:     530
 k-point ** :   0.4071 0.3429 0.7500  plane waves:     534
 k-point ** :   0.4038 0.3462 0.7500  plane waves:     534
 k-point ** :   0.4006 0.3494 0.7500  plane waves:     534
 k-point ** :   0.3974 0.3526 0.7500  plane waves:     534
 k-point ** :   0.3942 0.3558 0.7500  plane waves:     534
 k-point ** :   0.3910 0.3590 0.7500  plane waves:     534
 k-point ** :   0.3878 0.3622 0.7500  plane waves:     534
 k-point ** :   0.3846 0.3654 0.7500  plane waves:     534
 k-point ** :   0.3814 0.3686 0.7500  plane waves:     534
 k-point ** :   0.3782 0.3718 0.7500  plane waves:     534
 k-point ** :   0.3750 0.3750 0.7500  plane waves:     542

 maximum and minimum number of plane-waves per node :       144      120

 maximum number of plane-waves:       548
 maximum index in each direction:
   IXMAX=    5   IYMAX=    5   IZMAX=    5
   IXMIN=   -6   IYMIN=   -6   IZMIN=   -6

 parallel 3D FFT for wavefunctions:
    minimum data exchange during FFTs selected (reduces bandwidth)
 parallel 3D FFT for charge:
    minimum data exchange during FFTs selected (reduces bandwidth)

 initial charge density was supplied:
 number of electron       3.0000000 magnetization
 keeping initial charge density in first step

 Maximum index for augmentation-charges         1135 (set IRDMAX)

 First call to EWALD:  gamma=   0.701
 Maximum number of real-space cells 3x 3x 3
 Maximum number of reciprocal cells 3x 3x 3

--------------------------------------- Iteration      1(   1)  ---------------------------------------

 eigenvalue-minimisations  :  4332
 total energy-change (2. order) : 0.3643034E+01  (-0.9897395E+02)
 number of electron       3.0000000 magnetization
 augmentation part        3.0000000 magnetization

 Free energy of the ion-electron system (eV)
  alpha Z        PSCENC =        -0.20818141
  Ewald energy   TEWEN  =       -74.06738932
  -Hartree energ DENC   =        -0.10815276
  -exchange      EXHF   =         0.00000000
  -V(xc)+E(xc)   XCENC  =       -25.18294873
  PAW double counting   =       151.33145409     -120.12288758
  entropy T*S    EENTRO =        -0.00017091
  eigenvalues    EBANDS =        18.83409231
  atomic energy  EATOM  =        53.16721811
  Solvation  Ediel_sol  =         0.00000000
  free energy    TOTEN  =         3.64303380 eV

  energy without entropy =        3.64320471  energy(sigma->0) =        3.64311926

[...]

 eigenvalue-minimisations  :  6162
 total energy-change (2. order) :-0.3592204E+01  (-0.3462003E+01)
 number of electron       3.0000000 magnetization
 augmentation part        3.0000000 magnetization

[...]

--------------------------------------- Iteration      1(   6)  ---------------------------------------

 eigenvalue-minimisations  :  6294
 total energy-change (2. order) :-0.1149658E-09  (-0.2115262E-09)
 number of electron       3.0000000 magnetization
 augmentation part        3.0000000 magnetization

 Free energy of the ion-electron system (eV)
  alpha Z        PSCENC =        -0.20818141
  Ewald energy   TEWEN  =       -74.06738932
  -Hartree energ DENC   =        -0.10815276
  -exchange      EXHF   =         0.00000000
  -V(xc)+E(xc)   XCENC  =       -25.18294873
  PAW double counting   =       151.33145409     -120.12288758
  entropy T*S    EENTRO =        -0.00033424
  eigenvalues    EBANDS =        15.21451552
  atomic energy  EATOM  =        53.16721811
  Solvation  Ediel_sol  =         0.00000000
  free energy    TOTEN  =         0.02329368 eV

  energy without entropy =        0.02362792  energy(sigma->0) =        0.02346080

 average (electrostatic) potential at core
  the test charge radii are     1.0406
  (the norm of the test charge is              1.0000)
       1 -72.0516

 E-fermi :   7.3349     XC(G=0): -10.3388     alpha+bet :-15.2138

 k-point     1 :       0.0000    0.0000    0.0000
  band No.  band energies     occupation
      1      -3.1002      2.00000
      2      20.9048      0.00000
      3      20.9048      0.00000
      4      20.9048      0.00000
      5      22.5672      0.00000
      6      22.5672      0.00000
      7      22.5672      0.00000
      8      24.8342      0.00000
      9      27.7899      0.00000
     10      27.7899      0.00000
     11      30.7822      0.00000
     12      33.1543      0.00000
     13      33.1543      0.00000
     14      33.1543      0.00000
     15      42.1726      0.00000
     16      56.6594      0.00000
     17      56.6599      0.00000
     18      56.8679      0.00000

[...]

 k-point   120 :       0.3750    0.3750    0.7500
  band No.  band energies     occupation
      1       6.2614      2.00000
      2       6.7796      2.00000
      3       7.8249      0.00000
      4      14.8559      0.00000
      5      16.5026      0.00000
      6      24.0962      0.00000
      7      30.2581      0.00000
      8      30.6000      0.00000
      9      31.6332      0.00000
     10      36.5136      0.00000
     11      41.1404      0.00000
     12      42.4168      0.00000
     13      44.9875      0.00000
     14      47.1270      0.00000
     15      48.7601      0.00000
     16      49.3039      0.00000
     17      51.6663      0.00000
     18      52.8061      0.00000

 soft charge-density along one line, spin component           1
         0         1         2         3         4         5         6         7         8         9
 total charge-density along one line

------------------------ aborting loop because EDIFF is reached ----------------------------------------

 total charge

# of ion       s       p       d       tot
    1        0.255   0.470   0.000   0.725

 VOLUME and BASIS-vectors are now :
  energy-cutoff  :      600.00
  volume of cell :       16.13
      direct lattice vectors                 reciprocal lattice vectors
     2.005570022  2.005570022 -0.000000000     0.249305681  0.249305681 -0.249305681
     0.000000000  2.005570022  2.005570022    -0.249305681  0.249305681  0.249305681
     2.005570022 -0.000000000  2.005570022     0.249305681 -0.249305681  0.249305681

  length of vectors
     2.836304325  2.836304325  2.836304325     0.431810106  0.431810106  0.431810106

 FORCES acting on ions
    electron-ion (+dipol)            ewald-force                    non-local-force                 convergence-correction
   -.228E-07 -.799E-08 -.777E-08   0.128E-15 0.219E-15 -.131E-15   0.312E-07 0.671E-08 0.152E-07   -.107E-09 0.765E-10 -.468E-11
   -.228E-07 -.799E-08 -.777E-08   0.128E-15 0.219E-15 -.131E-15   0.312E-07 0.671E-08 0.152E-07   -.107E-09 0.765E-10 -.468E-11

 POSITION                                       TOTAL-FORCE (eV/Angst)
      0.00000      0.00000      0.00000         0.000000     -0.000000      0.000000
    total drift:                                0.000000     -0.000000      0.000000

  FREE ENERGIE OF THE ION-ELECTRON SYSTEM (eV)
  free  energy   TOTEN  =         0.02329368 eV

  energy  without entropy=        0.02362792  energy(sigma->0) =        0.02346080

 writing wavefunctions

 total charge

# of ion       s       p       d       tot
    1        0.255   0.470   0.000   0.725